210503
28,35,74,32,22,5,9,71,36,76,66,44,48,37,73,13,18,1,10,29,70,80,14,45,54,20,58,56,57,3,81,51,7,42,23,55,16,21,46,64,26,67,62,77,27,2,72,6,68,59,63,39,52,4,8,30,75,40,11,82,65,53,50,31,24,19,17,33,43,38,47,60,49,34,12,69,15,41,78,25,61,79,83,28